p tw 1354 1525
1 467
2 113
2 388
2 1244
3 14
3 1344
4 5
4 1354
5 6
6 7
7 8
8 9
9 10
10 11
11 12
12 13
13 15
14 25
15 16
16 17
17 18
18 19
19 20
20 21
21 22
22 23
23 24
23 1346
24 26
24 1345
25 36
26 27
27 28
27 1343
28 29
28 1341
29 30
30 31
30 284
31 32
31 283
32 33
32 282
33 34
33 152
34 35
35 37
36 47
37 38
38 39
39 40
40 41
41 42
42 43
43 44
44 45
45 46
46 48
47 58
48 49
49 50
50 51
51 52
52 53
53 54
54 55
55 56
56 57
57 59
58 69
59 60
60 61
61 62
62 63
63 64
64 65
65 66
66 67
67 68
68 70
69 80
70 71
70 151
71 72
71 150
72 73
73 74
74 75
75 76
76 77
77 78
78 79
79 81
80 91
81 82
82 83
83 84
84 85
85 86
86 87
87 88
88 89
89 90
90 92
91 102
92 93
93 94
94 95
95 96
96 97
97 98
98 99
99 100
100 101
101 103
102 114
103 104
104 105
105 106
106 107
107 108
108 109
109 110
110 111
111 112
112 115
113 224
113 387
114 125
115 116
116 117
117 118
118 119
119 120
120 121
121 122
122 123
123 124
124 126
125 136
126 127
127 128
128 129
129 130
130 131
131 132
132 133
133 134
134 135
135 137
136 147
136 452
137 138
138 139
139 140
140 141
141 142
142 143
143 144
144 145
145 146
146 148
147 158
147 451
148 149
149 150
150 151
151 152
152 153
153 154
154 155
155 156
156 157
157 159
157 281
158 169
158 450
159 160
159 277
160 161
160 276
161 162
161 275
162 163
162 274
163 164
163 273
164 165
164 272
165 166
165 271
166 167
167 168
168 170
168 270
169 180
170 171
170 262
171 172
171 261
172 173
173 174
173 201
174 175
174 200
175 176
175 199
176 177
177 178
178 179
178 196
179 181
179 195
180 191
181 182
181 194
182 183
182 193
183 184
184 185
185 186
186 187
187 188
188 189
189 190
190 192
191 202
191 447
192 193
193 194
194 195
195 196
196 197
197 198
198 199
199 200
200 201
201 203
202 213
202 446
203 204
204 205
205 206
206 207
207 208
208 209
209 210
210 211
211 212
212 214
213 225
213 443
214 215
215 216
216 217
217 218
218 219
219 220
220 221
221 222
222 223
223 226
224 335
224 386
225 236
226 227
227 228
228 229
229 230
230 231
231 232
232 233
233 234
234 235
235 237
236 247
237 238
238 239
239 240
240 241
241 242
242 243
243 244
244 245
245 246
246 248
247 258
248 249
249 250
250 251
251 252
252 253
253 254
254 255
255 256
256 257
257 259
258 269
259 260
260 261
261 262
262 263
263 264
263 1297
264 265
264 1296
265 266
265 1295
266 267
266 1294
267 268
268 270
269 280
270 271
271 272
272 273
273 274
274 275
275 276
276 277
277 278
278 279
279 281
280 291
280 436
281 282
282 283
283 284
284 285
285 286
286 287
287 288
288 289
288 1340
289 290
289 687
290 292
290 686
291 302
292 293
293 294
294 295
295 296
296 297
297 298
298 299
299 300
300 301
301 303
301 685
302 313
303 304
303 682
304 305
304 681
305 306
305 680
306 307
306 679
307 308
308 309
309 310
310 311
311 312
312 314
313 324
313 433
314 315
315 316
316 317
317 318
318 319
319 320
319 665
320 321
320 664
321 322
321 663
322 323
322 662
323 325
323 661
324 336
324 432
325 326
325 660
326 327
326 659
327 328
327 658
328 329
329 330
330 331
331 332
332 333
333 334
334 337
335 385
335 401
336 347
337 338
338 339
339 340
340 341
341 342
342 343
342 371
343 344
343 370
344 345
344 368
345 346
345 367
346 348
347 358
347 430
348 349
349 350
350 351
351 352
352 353
353 354
354 355
355 356
356 357
357 359
358 369
358 429
359 360
360 361
361 362
362 363
363 364
364 365
365 366
366 367
367 368
368 370
369 380
370 371
371 372
372 373
373 374
373 657
374 375
374 490
375 376
375 479
376 377
377 378
377 468
378 379
378 456
379 381
379 445
380 391
381 382
381 434
382 383
382 423
383 384
383 412
384 385
384 401
385 386
386 387
387 388
388 389
389 390
389 1244
390 392
390 1133
391 397
391 426
392 393
392 1022
393 394
394 395
395 396
397 398
397 425
398 399
398 424
399 400
399 422
400 402
401 412
402 403
403 404
404 405
405 406
406 407
407 408
408 409
409 410
410 411
411 413
412 423
413 414
414 415
415 416
416 417
417 418
418 419
419 420
420 421
421 422
422 424
423 434
424 425
425 426
426 427
427 428
428 429
429 430
430 431
431 432
432 433
433 435
434 445
435 436
436 437
437 438
438 439
439 440
440 441
441 442
442 443
443 444
444 446
445 456
446 447
447 448
448 449
449 450
450 451
451 452
452 453
453 454
454 455
454 525
455 457
455 524
456 468
457 458
457 522
458 459
459 460
459 520
460 461
460 519
461 462
462 463
462 517
463 464
464 465
465 466
466 469
466 515
467 578
468 479
469 470
469 514
470 471
470 513
471 472
471 510
472 473
473 474
473 509
474 475
475 476
476 477
477 478
478 480
479 490
480 481
481 482
482 483
483 484
484 485
485 486
486 487
487 488
488 489
489 491
490 501
491 492
492 493
493 494
494 495
495 496
496 497
497 498
498 499
499 500
500 502
501 512
502 503
503 504
504 505
505 506
506 507
507 508
508 509
509 510
510 511
511 513
512 523
513 514
514 515
515 516
516 517
517 518
518 519
519 520
520 521
521 522
522 524
523 534
523 1100
524 525
525 526
526 527
527 528
528 529
529 530
530 531
530 576
531 532
531 575
532 533
532 574
533 535
533 573
534 545
534 1089
535 536
535 572
536 537
537 538
538 539
539 540
540 541
541 542
542 543
543 544
544 546
545 556
545 1078
546 547
547 548
548 549
549 550
550 551
551 552
552 553
553 554
554 555
555 557
556 567
556 1067
557 558
558 559
559 560
560 561
561 562
562 563
563 564
564 565
565 566
566 568
567 579
567 1056
568 569
569 570
570 571
571 572
572 573
573 574
574 575
575 576
576 577
577 580
578 689
579 590
580 581
581 582
582 583
583 584
584 585
585 586
586 587
587 588
588 589
589 591
590 601
591 592
592 593
593 594
594 595
595 596
596 597
597 598
598 599
599 600
600 602
601 612
602 603
603 604
604 605
605 606
606 607
607 608
608 609
609 610
610 611
611 613
612 623
613 614
614 615
615 616
616 617
617 618
618 619
619 620
620 621
621 622
622 624
623 634
624 625
625 626
626 627
627 628
628 629
629 630
630 631
630 1211
631 632
631 1200
632 633
632 1178
633 635
634 645
635 636
635 1167
636 637
636 1156
637 638
638 639
638 1145
639 640
640 641
641 642
642 643
643 644
644 646
645 656
646 647
647 648
648 649
649 650
650 651
651 652
652 653
653 654
654 655
655 657
656 667
657 658
658 659
659 660
660 661
661 662
662 663
663 664
664 665
665 666
666 668
667 678
668 669
669 670
670 671
671 672
672 673
673 674
674 675
675 676
676 677
677 679
678 690
679 680
680 681
681 682
682 683
683 684
684 685
685 686
686 687
687 688
688 691
689 800
690 701
691 692
691 1166
692 693
692 1165
693 694
693 1164
694 695
694 1163
695 696
696 697
697 698
698 699
699 700
699 1157
700 702
700 1155
701 712
702 703
702 1154
703 704
703 1153
704 705
704 1152
705 706
705 1151
706 707
706 1150
707 708
707 1149
708 709
708 1084
709 710
709 1083
710 711
710 1082
711 713
711 1081
712 723
713 714
714 715
714 1080
715 716
715 1079
716 717
717 718
718 719
719 720
720 721
721 722
722 724
723 734
724 725
725 726
726 727
727 728
728 729
729 730
730 731
731 732
732 733
733 735
734 745
735 736
736 737
737 738
738 739
739 740
740 741
741 742
741 790
742 743
742 788
743 744
743 787
744 746
744 786
745 756
746 747
747 748
748 749
749 750
750 751
751 752
752 753
753 754
754 755
755 757
756 767
757 758
758 759
759 760
760 761
761 762
762 763
763 764
764 765
765 766
766 768
767 778
768 769
769 770
770 771
771 772
772 773
773 774
774 775
775 776
776 777
777 779
778 789
778 1011
779 780
780 781
781 782
782 783
783 784
784 785
785 786
786 787
787 788
788 790
789 801
789 1000
790 791
791 792
792 793
793 794
794 795
795 796
796 797
797 798
798 799
799 802
800 911
801 812
801 989
802 803
803 804
804 805
805 806
806 807
807 808
808 809
808 940
809 810
809 939
810 811
810 938
811 813
811 937
812 823
812 978
813 814
813 936
814 815
814 935
815 816
816 817
817 818
818 819
819 820
820 821
821 822
822 824
823 834
823 967
824 825
825 826
826 827
826 880
827 828
827 879
828 829
828 877
829 830
829 876
830 831
831 832
832 833
833 835
834 845
835 836
836 837
837 838
838 839
839 840
840 841
841 842
842 843
843 844
844 846
844 870
845 856
846 847
846 869
847 848
847 868
848 849
849 850
850 851
851 852
852 853
853 854
853 1064
854 855
854 1063
855 857
855 1062
856 867
857 858
857 1061
858 859
859 860
860 861
861 862
862 863
863 864
864 865
865 866
866 868
867 878
868 869
869 870
870 871
871 872
872 873
873 874
874 875
875 876
876 877
877 879
878 889
879 880
880 881
881 882
882 883
883 884
884 885
885 886
886 887
887 888
888 890
889 900
890 891
891 892
892 893
893 894
894 895
895 896
896 897
897 898
898 899
899 901
900 912
901 902
902 903
903 904
904 905
905 906
906 907
907 908
908 909
909 910
910 913
911 1022
912 923
913 914
914 915
915 916
916 917
917 918
918 919
919 920
920 921
921 922
922 924
923 934
924 925
925 926
926 927
927 928
928 929
929 930
930 931
931 932
932 933
933 935
934 945
935 936
936 937
937 938
938 939
939 940
940 941
941 942
942 943
943 944
944 946
945 956
946 947
947 948
948 949
949 950
950 951
951 952
952 953
953 954
954 955
955 957
956 967
957 958
958 959
959 960
960 961
961 962
962 963
963 964
964 965
965 966
966 968
967 978
968 969
969 970
970 971
971 972
972 973
973 974
974 975
975 976
976 977
977 979
978 989
979 980
980 981
981 982
982 983
983 984
984 985
985 986
986 987
987 988
988 990
989 1000
990 991
991 992
992 993
993 994
994 995
995 996
996 997
997 998
998 999
999 1001
1000 1011
1001 1002
1002 1003
1003 1004
1004 1005
1005 1006
1006 1007
1007 1008
1008 1009
1009 1010
1010 1012
1011 1023
1012 1013
1013 1014
1014 1015
1015 1016
1016 1017
1017 1018
1018 1019
1019 1020
1020 1021
1021 1024
1022 1133
1023 1034
1024 1025
1025 1026
1026 1027
1027 1028
1028 1029
1029 1030
1030 1031
1031 1032
1032 1033
1033 1035
1034 1045
1035 1036
1036 1037
1037 1038
1038 1039
1039 1040
1040 1041
1041 1042
1042 1043
1043 1044
1044 1046
1045 1056
1046 1047
1047 1048
1048 1049
1049 1050
1050 1051
1051 1052
1052 1053
1053 1054
1054 1055
1055 1057
1056 1067
1057 1058
1058 1059
1059 1060
1060 1061
1061 1062
1062 1063
1063 1064
1064 1065
1065 1066
1066 1068
1067 1078
1068 1069
1069 1070
1070 1071
1071 1072
1072 1073
1073 1074
1074 1075
1075 1076
1076 1077
1077 1079
1078 1089
1079 1080
1080 1081
1081 1082
1082 1083
1083 1084
1084 1085
1085 1086
1086 1087
1087 1088
1088 1090
1089 1100
1090 1091
1091 1092
1092 1093
1092 1197
1093 1094
1093 1196
1094 1095
1094 1195
1095 1096
1095 1194
1096 1097
1096 1193
1097 1098
1098 1099
1099 1101
1100 1111
1101 1102
1102 1103
1103 1104
1104 1105
1105 1106
1106 1107
1107 1108
1108 1109
1108 1139
1109 1110
1109 1138
1110 1112
1110 1137
1111 1122
1112 1113
1112 1136
1113 1114
1113 1135
1114 1115
1115 1116
1116 1117
1117 1118
1118 1119
1119 1120
1120 1121
1121 1123
1122 1134
1123 1124
1124 1125
1125 1126
1126 1127
1127 1128
1128 1129
1129 1130
1130 1131
1131 1132
1132 1135
1133 1244
1134 1145
1135 1136
1136 1137
1137 1138
1138 1139
1139 1140
1140 1141
1141 1142
1142 1143
1143 1144
1144 1146
1145 1156
1146 1147
1147 1148
1148 1149
1149 1150
1150 1151
1151 1152
1152 1153
1153 1154
1154 1155
1155 1157
1156 1167
1157 1158
1158 1159
1159 1160
1160 1161
1161 1162
1162 1163
1163 1164
1164 1165
1165 1166
1166 1168
1167 1178
1168 1169
1169 1170
1170 1171
1171 1172
1171 1337
1172 1173
1173 1174
1174 1175
1175 1176
1176 1177
1177 1179
1178 1189
1179 1180
1180 1181
1181 1182
1182 1183
1182 1327
1183 1184
1183 1326
1184 1185
1184 1325
1185 1186
1185 1324
1186 1187
1186 1323
1187 1188
1187 1321
1188 1190
1189 1200
1190 1191
1191 1192
1192 1193
1193 1194
1194 1195
1195 1196
1196 1197
1197 1198
1198 1199
1199 1201
1200 1211
1201 1202
1202 1203
1203 1204
1204 1205
1205 1206
1206 1207
1207 1208
1208 1209
1209 1210
1210 1212
1211 1222
1212 1213
1213 1214
1214 1215
1215 1216
1216 1217
1217 1218
1218 1219
1219 1220
1220 1221
1221 1223
1222 1233
1223 1224
1224 1225
1225 1226
1226 1227
1227 1228
1228 1229
1229 1230
1230 1231
1231 1232
1232 1234
1233 1245
1234 1235
1235 1236
1236 1237
1237 1238
1238 1239
1239 1240
1240 1241
1241 1242
1242 1243
1243 1246
1245 1256
1246 1247
1247 1248
1248 1249
1249 1250
1250 1251
1251 1252
1252 1253
1253 1254
1254 1255
1255 1257
1256 1267
1257 1258
1258 1259
1259 1260
1260 1261
1261 1262
1262 1263
1263 1264
1264 1265
1265 1266
1266 1268
1267 1278
1268 1269
1269 1270
1270 1271
1271 1272
1272 1273
1273 1274
1274 1275
1275 1276
1276 1277
1277 1279
1278 1289
1279 1280
1280 1281
1281 1282
1282 1283
1283 1284
1284 1285
1285 1286
1286 1287
1287 1288
1288 1290
1289 1300
1290 1291
1291 1292
1292 1293
1293 1294
1294 1295
1295 1296
1296 1297
1297 1298
1298 1299
1299 1301
1300 1311
1301 1302
1302 1303
1303 1304
1304 1305
1305 1306
1306 1307
1307 1308
1308 1309
1309 1310
1310 1312
1311 1322
1312 1313
1313 1314
1314 1315
1315 1316
1316 1317
1317 1318
1318 1319
1319 1320
1320 1321
1321 1323
1322 1333
1323 1324
1324 1325
1325 1326
1326 1327
1327 1328
1328 1329
1329 1330
1330 1331
1331 1332
1332 1334
1333 1344
1334 1335
1335 1336
1336 1337
1337 1338
1338 1339
1339 1340
1340 1341
1341 1342
1342 1343
1343 1345
1345 1346
1346 1347
1347 1348
1348 1349
1349 1350
1350 1351
1351 1352
1352 1353
1353 1354
